
variable	temp1 equal 4
variable    temp2 equal 600
variable	temp3 equal 3.0


variable	press1 equal 1.0
variable    press2 equal 0.0





units		real
atom_style	full
pair_style      sw
atom_modify     map array sort 0 0.0

#read_data	config_KM.txt
read_data       NPT1_new.lmp
#neighbor    25.0 bin
#neigh_modify every 1 delay 0 check yes


pair_coeff * * epsA.B.sw A B
#pair_coeff * * eps.swpoly T S
#pair_coeff * * swz1 eps.swpoly T NULL


#group one type 1
#group two type 2 


neighbor        1.0 bin
neigh_modify    every 1 delay 0 check yes


 
# -- Run section --
compute thermo_ke all ke

# -- Run section --

fix 1 all nve
run     0

