
variable	temp1 equal 4
variable    temp2 equal 600
variable	temp3 equal 3.0


variable	press1 equal 1.0
variable    press2 equal 0.0





units		real
atom_style	full
pair_style      sw
atom_modify     map array sort 0 0.0

#read_data	config_KM.txt
read_data	NPT1.lmp


pair_coeff * * epsA.B.sw A B
#pair_coeff * * swz1 eps.swpoly T NULL



neighbor        1.0 bin
neigh_modify    every 1 delay 0 check yes



 
# -- Run section --
compute thermo_ke all ke
timestep   ${dt}

# -- Run section --
velocity        all create 295 ${seed} dist gaussian mom yes


#thermo      10
#thermo_style custom step temp etotal pe ke lx press density 


fix 1 all nve
#unfix 1
run     ${nsteps}

write_data NPT_NVE.lmp

